RAW/CMTT/fspd-mid/CMT7T.vrp_seed-4.out
903.0474612	3.841	144.124
