RAW/CMTT/fspd-mid/CMT7T.vrp_seed-4.sol
Route #1: 6 33 43 41 56 23 63
Route #2: 68 62 22 64 42 1 73
Route #3: 37 20 70 60 71 36
Route #4: 2 28 61 69 21 74 75
Route #5: 4 45 29 5 47 48 30
Route #6: 32 50 18 55 25 9
Route #7: 46 8 19 59 14 35 7
Route #8: 26 58 10 31 39 72 12
Route #9: 53 11 66 65 38
Route #10: 51 16 49 24 3 44 40 17
Route #11: 67 34 52 54 13 57 15 27
Cost 903.047461